Maximize

5 sel_0 + 4 sel_1 + 3 sel_2 + 4 sel_3 + 3 sel_4 + 5 sel_5 + 2 sel_6 + 4 sel_7 + 3 sel_8 + 2 sel_9


Subject To

a0: sel_0 + sel_1 + sel_2 >= 1
a1: sel_3 + sel_4 >= 1
a2: sel_5 + sel_6 >= 1
a3: sel_7 >= 1
a4: sel_8 + sel_9 >= 1
b0: sel_0 + sel_1 + sel_2 - sel_3 - sel_4 >= 0
b1: sel_0 + sel_1 + sel_2 - sel_5 - sel_6 >= 0
b2: sel_0 + sel_1 + sel_2 - sel_7 >= 0
b3: sel_0 + sel_1 + sel_2 - sel_8 - sel_9 >= 0
c0: 22 sel_0 + 18 sel_1 + 24 sel_2 + 26 sel_3 + 22 sel_4 + 7 sel_5 + 21 sel_6 + 15 sel_7 + 12 sel_8 + 27 sel_9 - 20 sel_0 - 20 sel_1 - 20 sel_2 - 20 sel_3 - 20 sel_4 - 20 sel_5 - 20 sel_6 - 20 sel_7 - 20 sel_8 - 20 sel_9 >= 0
d0: 100 sel_0 + 130 sel_1 + 90 sel_2 + 120 sel_3 + 70 sel_4 + 110 sel_5 + 80 sel_6 + 90 sel_7 + 75 sel_8 + 95 sel_9 <= 800




Binary

sel_0 sel_1 sel_2 sel_3 sel_4 sel_5 sel_6 sel_7 sel_8 sel_9

 


End
